15

C     -1.255725    1.394236    0.035894
C      0.115187    1.121076   -0.007560
C      0.576012   -0.208180   -0.017939
C     -0.363410   -1.256173    0.016060
C     -1.733066   -0.977043    0.059453
C     -2.178816    0.346572    0.069362
C      2.026560   -0.495638   -0.063923
O      2.441781   -1.686172   -0.073299
O      2.948176    0.547802   -0.097330
H     -1.602452    2.419572    0.043617
H      0.811874    1.949499   -0.032949
H     -0.040994   -2.289887    0.009153
H     -2.449368   -1.788109    0.085417
H     -3.239311    0.560378    0.102968
H      3.943552    0.362068   -0.128925
