13

C     -0.995352    1.242745   -0.013640
C      0.400235    1.197709   -0.099466
C      1.065526   -0.035708   -0.065445
C      0.328612   -1.222134    0.054707
C     -1.066874   -1.173636    0.140311
C     -1.728447    0.057923    0.106165
C      2.501479   -0.083829   -0.153654
N      3.655913   -0.122515   -0.224572
H     -1.508304    2.195466   -0.039979
H      0.958932    2.121342   -0.192051
H      0.831579   -2.181346    0.082083
H     -1.635150   -2.090124    0.233062
H     -2.808148    0.094107    0.172480
