21

C      2.363355    1.703214   -0.252114
C      1.220017    1.169304    0.350314
C      0.500556    0.133938   -0.276721
C      0.952241   -0.352177   -1.518664
C      2.095700    0.186271   -2.116826
C      2.800643    1.212550   -1.484306
C     -0.714231   -0.435569    0.361033
C     -1.635820    0.392332    1.025252
C     -2.773206   -0.157420    1.618886
C     -2.984550   -1.534335    1.547373
N     -2.087814   -2.327474    0.904872
C     -0.972985   -1.817460    0.316294
H      2.912750    2.496021    0.238988
H      0.909717    1.553370    1.313865
H      0.411870   -1.135052   -2.035685
H      2.433375   -0.190527   -3.073674
H      3.685695    1.627581   -1.948967
H     -1.487045    1.463826    1.069590
H     -3.486461    0.478879    2.126701
H     -3.861918   -1.973437    2.003106
H     -0.281891   -2.493835   -0.169316
