14

C     -1.079799   -1.214037    0.528206
C      0.311464   -1.106183    0.432095
C      0.894924    0.070362   -0.062219
C      0.073200    1.136427   -0.458838
C     -1.317739    1.025534   -0.361519
C     -1.893902   -0.148905    0.131673
N      2.317081    0.182177   -0.161094
H     -1.526646   -2.122949    0.909929
H      0.933322   -1.936698    0.741775
H      0.509744    2.050157   -0.842103
H     -1.948716    1.849704   -0.668306
H     -2.970335   -0.233538    0.206511
H      2.936869   -0.605886    0.131629
H      2.760534    1.053835   -0.527738
