13

C     -0.705551   -1.317077    0.209087
C      0.654967   -0.997098    0.267326
C      1.077900    0.319781    0.032365
C      0.133089    1.310713   -0.260256
C     -1.227034    0.988884   -0.318075
C     -1.646209   -0.324496   -0.083497
O      2.429485    0.652363    0.087166
H     -1.030479   -2.333432    0.390564
H      1.377684   -1.770446    0.494353
H      0.452994    2.328773   -0.442548
H     -1.955431    1.756774   -0.544489
H     -2.698731   -0.572787   -0.128396
H      3.137316   -0.041953    0.296400
