16

C     -1.570580   -1.005782    0.343544
C     -0.179867   -0.861275    0.304424
C      0.394678    0.353148   -0.122001
C     -0.444084    1.408385   -0.504288
C     -1.833957    1.260023   -0.463791
C     -2.396916    0.053589   -0.040105
O      1.782379    0.549851   -0.179694
C      2.748677   -0.432876    0.177951
H     -2.007890   -1.939989    0.671615
H      0.437375   -1.696250    0.606508
H     -0.016212    2.346708   -0.833907
H     -2.474285    2.080510   -0.760930
H     -3.472804   -0.060370   -0.009072
H      2.641976   -1.327360   -0.471470
H      3.764608   -0.010583    0.036838
H      2.626903   -0.717730    1.244377
