15

C      1.360306   -1.231881   -0.124578
C     -0.035943   -1.195909   -0.198023
C     -0.719442    0.023524   -0.062722
C      0.009670    1.199661    0.177261
C      1.405840    1.159553    0.250062
C      2.080786   -0.054779    0.096765
C     -2.218440    0.058135   -0.101458
H      1.883474   -2.172896   -0.235463
H     -0.582839   -2.116512   -0.360527
H     -0.501687    2.145523    0.307154
H      1.964248    2.069295    0.429116
H      3.161171   -0.084430    0.154727
H     -2.617696   -0.094718    0.922878
H     -2.611627   -0.739974   -0.766647
H     -2.577820    1.035407   -0.488545
