21

C     -2.998879   -2.191229   -0.078432
C     -2.191246   -0.987742    0.269972
O     -2.675874   -0.117604    1.043119
O     -0.867408   -0.898555   -0.179287
C     -0.070927    0.257635   -0.137108
C     -0.646154    1.535829   -0.279659
C      0.150512    2.680567   -0.251003
C      1.529599    2.567441   -0.091207
C      2.119476    1.308570    0.031814
C      1.334654    0.139587    0.005225
C      2.004540   -1.180515    0.138394
O      1.337159   -2.249697    0.143727
O      3.390263   -1.250854    0.261088
H     -2.653298   -2.610594   -1.046463
H     -4.071718   -1.918973   -0.168509
H     -2.880043   -2.958484    0.714490
H     -1.708938    1.650260   -0.443647
H     -0.302068    3.657542   -0.362248
H      2.145428    3.457407   -0.070791
H      3.194554    1.252939    0.147473
H      3.860368   -2.143531    0.353052
