24

C     -1.504941    2.789890    0.168189
N     -0.987793    1.418209    0.028202
C      0.370507    1.194162    0.027528
O      1.191756    2.146595    0.128204
C      0.819855   -0.114731   -0.087255
C     -0.060840   -1.137620   -0.170925
N      0.583962   -2.316730   -0.283050
C      1.891723   -1.949084   -0.261297
N      2.067411   -0.610185   -0.140719
C      3.336401    0.108673   -0.090974
N     -1.406995   -0.943258   -0.128415
C     -2.336382   -2.075146   -0.243201
C     -1.870502    0.351871   -0.035875
O     -3.115729    0.565777   -0.008288
H     -0.796044    3.536244   -0.249538
H     -1.678016    3.014209    1.241719
H     -2.457101    2.917028   -0.389896
H      2.706673   -2.657878   -0.333171
H      3.414914    0.664288    0.866922
H      3.396657    0.821487   -0.939943
H      4.187839   -0.601304   -0.161128
H     -1.850086   -3.031638    0.044133
H     -2.697589   -2.154687   -1.290069
H     -3.205680   -1.936172    0.434540
